#=======================================================
# FHI-aims file: geometry.in
# Created using the Atomic Simulation Environment (ASE)
# Mon Oct 25 13:44:51 2021
#=======================================================
lattice_vector 3.7866767299999999 -0.0000000300000000 -0.0000000000000000 
lattice_vector -1.8933379100000001 3.2793582400000001 0.0000000000000000 
lattice_vector -0.0000000000000000 -0.0000000000000000 23.4459051800000005 
atom_frac 0.6666670000000001 0.3333330000000000 0.8946655900000000 Pt
atom_frac 0.3333330000000000 0.6666670000000001 0.8253814100000001 Pt
atom_frac 0.0000000000000000 0.0000000000000000 0.9432454600000001 Se
atom_frac 0.0000000000000000 0.0000000000000000 0.7768015400000000 Se
