#=======================================================
# FHI-aims file: geomerty.in
# Created using the Atomic Simulation Environment (ASE)
# Mon Oct 25 12:20:44 2021
#=======================================================
lattice_vector 4.9533620000000003 0.0000000000000000 0.0000000000000000 
lattice_vector -2.4766810000000001 4.2897369999999997 0.0000000000000000 
lattice_vector 0.0000000000000000 0.0000000000000000 22.7477839999999993 
atom_frac 0.6666669999999999 0.3333330000000000 0.8392150000000000 Ba
atom_frac 0.3333330000000000 0.6666670000000000 0.0031600000000000 Ba
atom_frac 0.0000000000000000 0.0000000000000000 0.9211880000000000 Sb
